0 144 
1 143 
2 144 
3 146 
4 147 
5 145 
6 145 
7 145 
8 144 
9 142 
10 138 
11 142 
12 136 
13 131 
14 128 
15 127 
16 125 
17 128 
18 129 
19 131 
20 128 
21 125 
22 124 
23 124 
24 119 
25 119 
26 115 
27 113 
28 113 
29 113 
30 116 
31 116 
32 117 
33 113 
34 105 
35 104 
36 108 
37 107 
38 104 
39 99 
40 93 
41 95 
42 90 
43 85 
44 80 
45 77 
46 76 
47 72 
48 73 
49 73 
50 75 
51 72 
52 68 
53 73 
54 69 
55 71 
56 69 
57 67 
58 66 
59 61 
60 59 
61 63 
62 58 
63 61 
64 61 
65 57 
66 53 
67 54 
68 49 
69 48 
70 47 
71 45 
72 44 
73 43 
74 41 
75 39 
76 36 
77 36 
78 34 
79 32 
80 27 
81 24 
82 25 
83 24 
84 21 
85 17 
86 14 
87 15 
88 14 
89 11 
90 10 
91 8 
92 7 
93 8 
94 6 
95 5 
96 5 
97 4 
98 2 
99 2 
100 1 
101 2 
102 3 
103 2 
104 3 
105 0 
106 0 

